Solving original (integer) problem with strategy gdp.hull_exact_conic_no_cholesky...
--- Job model.gms Start 02/15/26 22:37:47 52.2.0 d8e408be LEX-LEG x86 64bit/Linux
--- Applying:
    /package/gams/52.2/gmsprmun.txt
--- GAMS Parameters defined
    Input /local/scratch/a/sgusev/repos/k_means/data/gams_scip_gdp.hull_exact_conic_no_cholesky/no_mode/2026-02-15_22-37-47/original/model.gms
    Output /local/scratch/a/sgusev/repos/k_means/data/gams_scip_gdp.hull_exact_conic_no_cholesky/no_mode/2026-02-15_22-37-47/original/output.lst
    ScrDir /local/scratch/a/sgusev/repos/k_means/data/gams_scip_gdp.hull_exact_conic_no_cholesky/no_mode/2026-02-15_22-37-47/original/225a/
    SysDir /package/gams/52.2/
    CurDir /local/scratch/a/sgusev/repos/k_means/data/gams_scip_gdp.hull_exact_conic_no_cholesky/no_mode/2026-02-15_22-37-47/original/
    LogOption 3
    AppendLog 1
Licensee: David Bernal / SECQUOIA Research Group         G251008+0003Ac-GEN
          Purdue University, Davidson School of Chemical EngineeringDCE4838
          225a/gamslice.dat
          5a82958a-fbca-4a23
          node:66820903 mem:995 cores:48 ipport:46365 v:2                  
          Evaluation license: Not for commercial or production use
          The time-limited license stops working on : Jun 30, 2027
System information: 48 physical cores and 995 Gb physical memory detected
GAMS 52.2.0   Copyright (C) 1987-2025 GAMS Development. All rights reserved
--- Starting compilation
--- model.gms(2691) 2 Mb
--- $echo File /local/scratch/a/sgusev/repos/k_means/data/gams_scip_gdp.hull_exact_conic_no_cholesky/no_mode/2026-02-15_22-37-47/original/scip.opt
--- model.gms(3996) 2 Mb
--- Starting execution: elapsed 0:00:00.015
--- model.gms(2701) 3 Mb
--- Generating MINLP model GAMS_MODEL
--- model.gms(2705) 5 Mb
---   818 rows  420 columns  2,141 non-zeroes
---   572 nl-code  220 nl-non-zeroes
---   44 discrete-columns
--- Range statistics (absolute non-zero finite values)
--- RHS       [min, max] : [ 1.000E+00, 1.000E+00] - Zero values observed as well
--- Bound     [min, max] : [ 1.000E+00, 6.600E+01] - Zero values observed as well
--- Matrix    [min, max] : [ 4.680E-03, 6.600E+01] - Zero values observed as well
--- model.gms(2705) 3 Mb
--- Executing SCIP (Solvelink=5): elapsed 0:00:00.020

SCIP             52.2.0 d8e408be Dec 8, 2025           LEG x86 64bit/Linux    
SCIP version 9.2.4 (a94f778ac8)
Copyright (c) 2002-2025 Zuse Institute Berlin (ZIB)

External libraries: 
  CPLEX 22.1.2.0       Linear Programming Solver developed by IBM (www.cplex.com)
  CppAD 20180000.0     Algorithmic Differentiation of C++ algorithms developed by B. Bell (github.com/coin-or/CppAD)
  PaPILO 2.4.4         parallel presolve for integer and linear optimization (github.com/scipopt/papilo) (built with TBB) [GitHash: 7c826d50]
  Nauty 2.8.9          Computing Graph Automorphism Groups by Brendan D. McKay (users.cecs.anu.edu.au/~bdm/nauty)
  sassy 1.1            Symmetry preprocessor by Markus Anders (github.com/markusa4/sassy)
  Ipopt 3.14.19        Interior Point Optimizer developed by A. Waechter et.al. (github.com/coin-or/Ipopt)

reading option file /local/scratch/a/sgusev/repos/k_means/data/gams_scip_gdp.hull_exact_conic_no_cholesky/no_mode/2026-02-15_22-37-47/original/scip.opt
non-default parameter settings:
limits/time = 300
limits/gap = 1e-06
limits/absgap = 1e-10
lp/threads = 1
misc/printreason = FALSE
numerics/dualfeastol = 1e-06
parallel/maxnthreads = 1
nlpi/ipopt/linear_solver = "ma27"
nlpi/ipopt/linear_system_scaling = "mc19"

original problem has 419 variables (44 bin, 0 int, 375 cont) and 817 constraints

all 1 solutions given by solution candidate storage are infeasible

presolving:
(round 1, fast)       11 del vars, 0 del conss, 0 add conss, 44 chg bounds, 0 chg sides, 0 chg coeffs, 0 upgd conss, 0 impls, 11 clqs
(round 2, fast)       11 del vars, 0 del conss, 0 add conss, 44 chg bounds, 11 chg sides, 0 chg coeffs, 0 upgd conss, 0 impls, 11 clqs
(round 3, exhaustive) 11 del vars, 0 del conss, 0 add conss, 44 chg bounds, 11 chg sides, 0 chg coeffs, 583 upgd conss, 0 impls, 11 clqs
   (0.0s) probing cycle finished: starting next cycle
   (0.0s) symmetry computation started: requiring (bin +, int +, cont +), (fixed: bin -, int -, cont -)
   (0.0s) no symmetry present (symcode time: 0.00)
presolving (4 rounds: 4 fast, 2 medium, 2 exhaustive):
 11 deleted vars, 0 deleted constraints, 0 added constraints, 44 tightened bounds, 0 added holes, 11 changed sides, 0 changed coefficients
 1672 implications, 11 cliques
presolved problem has 408 variables (44 bin, 0 int, 0 impl, 364 cont) and 817 constraints
    572 constraints of type <varbound>
     11 constraints of type <setppc>
    190 constraints of type <linear>
     44 constraints of type <nonlinear>
Presolving Time: 0.02

 time | node  | left  |LP iter|LP it/n|mem/heur|mdpt |vars |cons |rows |cuts |sepa|confs|strbr|  dualbound   | primalbound  |  gap   | compl. 
  0.0s|     1 |     0 |   641 |     - |  8541k |   0 | 628 | 817 |1301 |   0 |  0 |   0 |   0 | 0.000000e+00 |      --      |    Inf | unknown
o 0.1s|     1 |     0 |   766 |     - |feaspump|   0 | 628 | 817 |1301 |   0 |  0 |   0 |   0 | 0.000000e+00 | 5.971350e+00 |    Inf | unknown
  0.1s|     1 |     0 |   932 |     - |  9056k |   0 | 628 | 817 |1439 | 138 |  1 |   0 |   0 | 0.000000e+00 | 5.971350e+00 |    Inf | unknown
  0.1s|     1 |     0 |   932 |     - |  9077k |   0 | 628 | 817 |1428 | 138 |  1 |   0 |   0 | 0.000000e+00 | 5.971350e+00 |    Inf | unknown
  0.2s|     1 |     0 |  1036 |     - |  9948k |   0 | 628 | 817 |1555 | 265 |  2 |   0 |   0 | 0.000000e+00 | 5.971350e+00 |    Inf | unknown
  0.2s|     1 |     0 |  1192 |     - |    10M |   0 | 628 | 817 |1650 | 360 |  3 |   0 |   0 | 0.000000e+00 | 5.971350e+00 |    Inf | unknown
  0.2s|     1 |     0 |  1335 |     - |    10M |   0 | 628 | 817 |1743 | 453 |  4 |   0 |   0 | 0.000000e+00 | 5.971350e+00 |    Inf | unknown
  0.2s|     1 |     0 |  1518 |     - |    10M |   0 | 628 | 817 |1849 | 559 |  5 |   0 |   0 | 0.000000e+00 | 5.971350e+00 |    Inf | unknown
  0.3s|     1 |     0 |  1694 |     - |    11M |   0 | 628 | 817 |1937 | 647 |  6 |   0 |   0 | 0.000000e+00 | 5.971350e+00 |    Inf | unknown
  0.3s|     1 |     0 |  1887 |     - |    11M |   0 | 628 | 817 |2019 | 729 |  7 |   0 |   0 | 0.000000e+00 | 5.971350e+00 |    Inf | unknown
  0.3s|     1 |     0 |  2080 |     - |    12M |   0 | 628 | 817 |2102 | 812 |  8 |   0 |   0 | 0.000000e+00 | 5.971350e+00 |    Inf | unknown
  0.4s|     1 |     0 |  2312 |     - |    12M |   0 | 628 | 817 |2186 | 896 |  9 |   0 |   0 | 0.000000e+00 | 5.971350e+00 |    Inf | unknown
  0.4s|     1 |     0 |  2525 |     - |    12M |   0 | 628 | 817 |2278 | 988 | 10 |   0 |   0 | 0.000000e+00 | 5.971350e+00 |    Inf | unknown
  0.4s|     1 |     0 |  2725 |     - |    12M |   0 | 628 | 817 |1775 |1076 | 11 |   0 |   0 | 0.000000e+00 | 5.971350e+00 |    Inf | unknown
  0.5s|     1 |     0 |  3015 |     - |    13M |   0 | 628 | 817 |1838 |1139 | 12 |   0 |   0 | 0.000000e+00 | 5.971350e+00 |    Inf | unknown
 time | node  | left  |LP iter|LP it/n|mem/heur|mdpt |vars |cons |rows |cuts |sepa|confs|strbr|  dualbound   | primalbound  |  gap   | compl. 
  0.5s|     1 |     0 |  3015 |     - |    13M |   0 | 628 | 806 |1838 |1139 | 12 |   0 |   0 | 0.000000e+00 | 5.971350e+00 |    Inf | unknown
  0.5s|     1 |     0 |  3295 |     - |    13M |   0 | 628 | 806 |1918 |1219 | 13 |   0 |   0 | 0.000000e+00 | 5.971350e+00 |    Inf | unknown
  0.6s|     1 |     0 |  3623 |     - |    13M |   0 | 628 | 806 |1995 |1296 | 14 |   0 |   0 | 0.000000e+00 | 5.971350e+00 |    Inf | unknown
  0.6s|     1 |     0 |  3925 |     - |    13M |   0 | 628 | 806 |2066 |1367 | 15 |   0 |   0 | 0.000000e+00 | 5.971350e+00 |    Inf | unknown
  0.6s|     1 |     0 |  4073 |     - |    14M |   0 | 628 | 806 |2133 |1434 | 16 |   0 |   0 | 0.000000e+00 | 5.971350e+00 |    Inf | unknown
  0.6s|     1 |     0 |  4135 |     - |    14M |   0 | 628 | 806 |1600 |1474 | 17 |   0 |   0 | 0.000000e+00 | 5.971350e+00 |    Inf | unknown
  0.6s|     1 |     0 |  4182 |     - |    14M |   0 | 628 | 806 |1624 |1498 | 18 |   0 |   0 | 0.000000e+00 | 5.971350e+00 |    Inf | unknown
  0.7s|     1 |     0 |  4209 |     - |    14M |   0 | 628 | 806 |1641 |1515 | 19 |   0 |   0 | 0.000000e+00 | 5.971350e+00 |    Inf | unknown
  0.7s|     1 |     0 |  4223 |     - |    14M |   0 | 628 | 806 |1651 |1525 | 20 |   0 |   0 | 0.000000e+00 | 5.971350e+00 |    Inf | unknown
  0.7s|     1 |     0 |  4224 |     - |    14M |   0 | 628 | 806 |1652 |1526 | 21 |   0 |   0 | 0.000000e+00 | 5.971350e+00 |    Inf | unknown
d 0.9s|     1 |     0 |  4370 |     - |    mpec|   0 | 628 | 806 |1652 |1526 | 22 |   0 |   0 | 0.000000e+00 | 5.602797e+00 |    Inf | unknown
  0.9s|     1 |     0 |  4370 |     - |    16M |   0 | 628 | 806 |1652 |1526 | 22 |   0 |   0 | 0.000000e+00 | 5.602797e+00 |    Inf | unknown
  1.0s|     1 |     0 |  4370 |     - |    16M |   0 | 628 | 806 |1652 |1526 | 23 |   0 |   3 | 0.000000e+00 | 5.602797e+00 |    Inf | unknown
  1.1s|     1 |     0 |  4370 |     - |    16M |   0 | 628 | 806 |1652 |1526 | 24 |   0 |   6 | 0.000000e+00 | 5.602797e+00 |    Inf | unknown
  1.1s|     1 |     0 |  4370 |     - |    16M |   0 | 628 | 806 |1652 |1526 | 25 |   0 |   9 | 0.000000e+00 | 5.602797e+00 |    Inf | unknown
 time | node  | left  |LP iter|LP it/n|mem/heur|mdpt |vars |cons |rows |cuts |sepa|confs|strbr|  dualbound   | primalbound  |  gap   | compl. 
  1.2s|     1 |     0 |  4370 |     - |    16M |   0 | 628 | 806 |1652 |1526 | 26 |   0 |  12 | 0.000000e+00 | 5.602797e+00 |    Inf | unknown
  1.3s|     1 |     0 |  4370 |     - |    16M |   0 | 628 | 806 |1652 |1526 | 27 |   0 |  15 | 0.000000e+00 | 5.602797e+00 |    Inf | unknown
  1.4s|     1 |     0 |  4370 |     - |    16M |   0 | 628 | 806 |1652 |1526 | 28 |   0 |  18 | 0.000000e+00 | 5.602797e+00 |    Inf | unknown
  1.5s|     1 |     0 |  4370 |     - |    16M |   0 | 628 | 806 |1652 |1526 | 29 |   0 |  21 | 0.000000e+00 | 5.602797e+00 |    Inf | unknown
  1.6s|     1 |     0 |  4370 |     - |    16M |   0 | 628 | 806 |1652 |1526 | 30 |   0 |  24 | 0.000000e+00 | 5.602797e+00 |    Inf | unknown
  1.7s|     1 |     0 |  4370 |     - |    16M |   0 | 628 | 806 |1652 |1526 | 31 |   0 |  27 | 0.000000e+00 | 5.602797e+00 |    Inf | unknown
  1.8s|     1 |     0 |  4370 |     - |    16M |   0 | 628 | 806 |1652 |1526 | 32 |   0 |  30 | 0.000000e+00 | 5.602797e+00 |    Inf | unknown
  1.8s|     1 |     0 |  4370 |     - |    16M |   0 | 628 | 806 |1652 |1526 | 33 |   0 |  32 | 0.000000e+00 | 5.602797e+00 |    Inf | unknown
  1.8s|     1 |     2 |  4370 |     - |    16M |   0 | 628 | 806 |1652 |1526 | 34 |   0 |  32 | 0.000000e+00 | 5.602797e+00 |    Inf | unknown
d 4.3s|    70 |    41 | 30166 | 377.9 |pscostdi|  13 | 628 | 832 |1821 |  10k|  7 |  27 | 196 | 0.000000e+00 | 4.675480e+00 |    Inf |   0.63%
d 4.9s|    90 |    55 | 39447 | 397.3 |fracdivi|  13 | 628 | 829 |1754 |  13k| 11 |  44 | 217 | 0.000000e+00 | 3.564230e+00 |    Inf |   1.25%
  5.2s|   100 |    65 | 45648 | 419.8 |    27M |  13 | 628 | 828 |1646 |  14k| 11 |  46 | 218 | 0.000000e+00 | 3.564230e+00 |    Inf |   1.60%
  9.1s|   200 |   163 |106199 | 513.1 |    39M |  15 | 628 | 844 |1689 |  28k|  7 | 160 | 220 | 0.000000e+00 | 3.564230e+00 |    Inf |   2.31%
 12.8s|   300 |   249 |166130 | 541.9 |    52M |  15 | 628 | 878 |1561 |  42k|  6 | 269 | 220 | 0.000000e+00 | 3.564230e+00 |    Inf |   5.86%
d16.0s|   390 |   288 |216521 | 546.1 |pscostdi|  17 | 628 | 881 |1656 |  54k|  7 | 329 | 220 | 0.000000e+00 | 2.471887e+00 |    Inf |  11.13%
 time | node  | left  |LP iter|LP it/n|mem/heur|mdpt |vars |cons |rows |cuts |sepa|confs|strbr|  dualbound   | primalbound  |  gap   | compl. 
 16.3s|   400 |   296 |221268 | 544.3 |    61M |  17 | 628 | 881 |1916 |  55k|  6 | 338 | 220 | 1.331342e-03 | 2.471887e+00 |  Large |  11.30%
 20.4s|   500 |   378 |280223 | 553.4 |    77M |  17 | 628 | 885 |1904 |  70k| 11 | 426 | 220 | 4.156816e-02 | 2.471887e+00 |5846.59%|  15.57%
 23.5s|   600 |   456 |325574 | 536.7 |    85M |  19 | 628 | 886 |1605 |  81k|  5 | 488 | 220 | 4.923804e-02 | 2.471887e+00 |4920.28%|  17.96%
 26.0s|   700 |   512 |362724 | 513.1 |    90M |  21 | 628 | 886 |1932 |  91k|  5 | 525 | 220 | 1.153251e-01 | 2.471887e+00 |2043.41%|  19.49%
*26.3s|   717 |   500 |366291 | 505.9 |    LP  |  21 | 628 | 886 |2181 |  93k|  9 | 530 | 220 | 1.153251e-01 | 2.430333e+00 |2007.38%|  19.99%
*26.8s|   743 |   491 |373935 | 498.4 |    LP  |  21 | 628 | 886 |2041 |  95k| 11 | 535 | 220 | 1.421075e-01 | 2.349024e+00 |1552.99%|  22.34%
 27.8s|   800 |   508 |387712 | 480.1 |    92M |  21 | 628 | 886 |2011 | 100k|  7 | 544 | 220 | 1.430069e-01 | 2.349024e+00 |1542.59%|  22.79%
 29.9s|   900 |   528 |414858 | 456.9 |    98M |  24 | 628 | 886 |1696 | 108k|  8 | 569 | 220 | 2.074491e-01 | 2.349024e+00 |1032.34%|  24.82%
*30.8s|   945 |   460 |424167 | 445.0 |    LP  |  26 | 628 | 886 |2079 | 111k| 10 | 576 | 220 | 2.545742e-01 | 2.135769e+00 | 738.96%|  27.04%
 31.7s|  1000 |   473 |438417 | 434.8 |   100M |  26 | 628 | 886 |1656 | 115k|  1 | 584 | 220 | 3.128266e-01 | 2.135769e+00 | 582.73%|  27.70%
 33.5s|  1100 |   493 |460093 | 414.9 |   101M |  26 | 628 | 886 |1892 | 122k|  4 | 600 | 221 | 3.908464e-01 | 2.135769e+00 | 446.45%|  28.59%
 35.3s|  1200 |   511 |482356 | 398.9 |   107M |  26 | 628 | 886 |1681 | 129k|  8 | 620 | 222 | 4.250181e-01 | 2.135769e+00 | 402.51%|  30.31%
 37.3s|  1300 |   531 |506489 | 386.8 |   109M |  27 | 628 | 886 |1891 | 136k|  0 | 638 | 226 | 4.699753e-01 | 2.135769e+00 | 354.44%|  31.57%
 38.7s|  1400 |   531 |522988 | 370.9 |   111M |  30 | 628 | 886 |1691 | 141k|  0 | 651 | 230 | 4.699753e-01 | 2.135769e+00 | 354.44%|  32.36%
 40.2s|  1500 |   523 |541080 | 358.2 |   112M |  30 | 628 | 886 |2008 | 147k|  3 | 663 | 230 | 4.858794e-01 | 2.135769e+00 | 339.57%|  34.67%
 time | node  | left  |LP iter|LP it/n|mem/heur|mdpt |vars |cons |rows |cuts |sepa|confs|strbr|  dualbound   | primalbound  |  gap   | compl. 
 42.1s|  1600 |   525 |565058 | 350.8 |   115M |  30 | 628 | 886 |1880 | 154k|  2 | 684 | 232 | 5.291185e-01 | 2.135769e+00 | 303.65%|  36.62%
 43.5s|  1700 |   543 |582300 | 340.3 |   116M |  30 | 628 | 886 |1840 | 160k|  5 | 699 | 237 | 5.589214e-01 | 2.135769e+00 | 282.12%|  37.43%
 44.9s|  1800 |   527 |599707 | 331.1 |   117M |  30 | 628 | 886 |1654 | 165k|  4 | 718 | 242 | 5.590381e-01 | 2.135769e+00 | 282.04%|  38.99%
 46.3s|  1900 |   523 |618669 | 323.6 |   119M |  30 | 628 | 886 |1838 | 172k|  2 | 744 | 252 | 5.624580e-01 | 2.135769e+00 | 279.72%|  40.54%
 47.9s|  2000 |   521 |638809 | 317.5 |   119M |  30 | 628 | 886 |1600 | 178k|  0 | 760 | 252 | 5.624580e-01 | 2.135769e+00 | 279.72%|  41.77%
 49.9s|  2100 |   523 |664621 | 314.7 |   122M |  30 | 628 | 886 |1799 | 186k|  3 | 780 | 256 | 6.301683e-01 | 2.135769e+00 | 238.92%|  43.68%
 51.4s|  2200 |   513 |683890 | 309.1 |   123M |  30 | 628 | 886 |1800 | 192k|  2 | 802 | 260 | 6.768197e-01 | 2.135769e+00 | 215.56%|  45.60%
 53.0s|  2300 |   511 |702097 | 303.6 |   125M |  30 | 628 | 886 |1728 | 197k|  0 | 820 | 265 | 6.960090e-01 | 2.135769e+00 | 206.86%|  46.92%
 54.3s|  2400 |   513 |722719 | 299.6 |   126M |  30 | 628 | 887 |1723 | 204k|  1 | 846 | 268 | 7.163630e-01 | 2.135769e+00 | 198.14%|  49.69%
 55.9s|  2500 |   503 |742344 | 295.4 |   128M |  30 | 628 | 887 |1760 | 210k|  7 | 862 | 272 | 7.480587e-01 | 2.135769e+00 | 185.51%|  52.63%
 57.6s|  2600 |   495 |763203 | 292.1 |   130M |  30 | 628 | 887 |1748 | 216k|  6 | 885 | 277 | 7.537666e-01 | 2.135769e+00 | 183.35%|  53.72%
 59.6s|  2700 |   491 |786465 | 289.9 |   134M |  30 | 628 | 887 |1869 | 223k|  6 | 908 | 282 | 8.012657e-01 | 2.135769e+00 | 166.55%|  55.87%
 61.1s|  2800 |   493 |806331 | 286.6 |   135M |  30 | 628 | 888 |1804 | 229k|  0 | 929 | 288 | 8.274119e-01 | 2.135769e+00 | 158.13%|  57.01%
 62.6s|  2900 |   491 |822995 | 282.5 |   136M |  30 | 628 | 888 |1722 | 234k|  6 | 936 | 289 | 8.493099e-01 | 2.135769e+00 | 151.47%|  57.59%
 63.9s|  3000 |   475 |840056 | 278.7 |   137M |  30 | 628 | 888 |2455 | 240k|  7 | 952 | 290 | 8.503709e-01 | 2.135769e+00 | 151.16%|  59.08%
 time | node  | left  |LP iter|LP it/n|mem/heur|mdpt |vars |cons |rows |cuts |sepa|confs|strbr|  dualbound   | primalbound  |  gap   | compl. 
 65.5s|  3100 |   463 |859702 | 276.1 |   140M |  30 | 628 | 888 |1631 | 246k|  2 | 975 | 300 | 9.383260e-01 | 2.135769e+00 | 127.61%|  60.98%
 67.2s|  3200 |   459 |879241 | 273.6 |   140M |  30 | 628 | 888 |1873 | 252k|  0 | 991 | 303 | 9.399472e-01 | 2.135769e+00 | 127.22%|  62.41%
 69.0s|  3300 |   455 |903184 | 272.5 |   142M |  30 | 628 | 888 |1575 | 259k|  0 |1011 | 310 | 9.419360e-01 | 2.135769e+00 | 126.74%|  64.08%
 70.4s|  3400 |   445 |921586 | 269.9 |   145M |  30 | 628 | 888 |1756 | 265k|  0 |1033 | 316 | 9.707981e-01 | 2.135769e+00 | 120.00%|  65.91%
 71.8s|  3500 |   431 |937595 | 266.8 |   145M |  30 | 628 | 888 |2004 | 270k|  0 |1047 | 320 | 9.707981e-01 | 2.135769e+00 | 120.00%|  67.34%
 73.2s|  3600 |   409 |954193 | 264.0 |   145M |  30 | 628 | 888 |1765 | 275k| 11 |1066 | 323 | 1.022968e+00 | 2.135769e+00 | 108.78%|  70.10%
 74.9s|  3700 |   399 |974781 | 262.4 |   146M |  30 | 628 | 888 |1396 | 281k|  0 |1083 | 327 | 1.036225e+00 | 2.135769e+00 | 106.11%|  71.97%
 76.1s|  3800 |   381 |989977 | 259.5 |   147M |  30 | 628 | 888 |1816 | 287k|  0 |1097 | 332 | 1.058798e+00 | 2.135769e+00 | 101.72%|  73.08%
 77.4s|  3900 |   355 |  1005k| 256.8 |   148M |  30 | 628 | 888 |1796 | 291k|  0 |1115 | 335 | 1.094648e+00 | 2.135769e+00 |  95.11%|  75.14%
 78.6s|  4000 |   343 |  1020k| 254.2 |   149M |  30 | 628 | 888 |1785 | 296k|  7 |1139 | 339 | 1.123966e+00 | 2.135769e+00 |  90.02%|  76.47%
 80.0s|  4100 |   329 |  1035k| 251.6 |   149M |  30 | 628 | 888 |1632 | 301k|  0 |1157 | 349 | 1.143655e+00 | 2.135769e+00 |  86.75%|  77.40%
 81.3s|  4200 |   303 |  1050k| 249.2 |   151M |  30 | 628 | 888 |1710 | 305k|  6 |1172 | 352 | 1.160607e+00 | 2.135769e+00 |  84.02%|  79.25%
 82.8s|  4300 |   269 |  1065k| 246.9 |   151M |  30 | 628 | 888 |1544 | 310k|  1 |1186 | 352 | 1.212082e+00 | 2.135769e+00 |  76.21%|  80.94%
 84.1s|  4400 |   251 |  1082k| 245.1 |   152M |  30 | 628 | 888 |1680 | 315k|  5 |1203 | 356 | 1.248852e+00 | 2.135769e+00 |  71.02%|  83.02%
 85.4s|  4500 |   209 |  1095k| 242.6 |   152M |  30 | 628 | 888 |1837 | 319k|  0 |1223 | 359 | 1.275987e+00 | 2.135769e+00 |  67.38%|  85.30%
 time | node  | left  |LP iter|LP it/n|mem/heur|mdpt |vars |cons |rows |cuts |sepa|confs|strbr|  dualbound   | primalbound  |  gap   | compl. 
 86.7s|  4600 |   183 |  1110k| 240.5 |   154M |  30 | 628 | 888 |1720 | 324k|  0 |1241 | 361 | 1.296022e+00 | 2.135769e+00 |  64.79%|  87.44%
 87.9s|  4700 |   161 |  1124k| 238.4 |   157M |  30 | 628 | 888 |1482 | 327k|  0 |1254 | 366 | 1.315366e+00 | 2.135769e+00 |  62.37%|  89.04%
 89.2s|  4800 |   135 |  1137k| 236.2 |   159M |  30 | 628 | 888 |1709 | 331k|  0 |1270 | 368 | 1.350711e+00 | 2.135769e+00 |  58.12%|  90.91%
 90.6s|  4900 |   103 |  1152k| 234.3 |   159M |  30 | 628 | 888 |1379 | 335k|  0 |1284 | 376 | 1.455640e+00 | 2.135769e+00 |  46.72%|  92.36%
 91.7s|  5000 |    81 |  1164k| 232.1 |   160M |  30 | 628 | 888 |1705 | 339k|  0 |1292 | 376 | 1.466322e+00 | 2.135769e+00 |  45.65%|  94.57%
 92.8s|  5100 |    35 |  1173k| 229.3 |   160M |  30 | 628 | 888 |1756 | 342k|  7 |1300 | 377 | 1.661433e+00 | 2.135769e+00 |  28.55%|  98.08%

SCIP Status        : problem is solved [optimal solution found]
Solving Time (sec) : 93.32
Solving Nodes      : 5159
Primal Bound       : +2.13576910546139e+00 (14 solutions)
Dual Bound         : +2.13576910546139e+00
Gap                : 0.00 %


--- Reading solution for model GAMS_MODEL
***
*** Solver did not provide marginals for model GAMS_MODEL
***
--- Executing after solve: elapsed 0:01:33.404
--- model.gms(2708) 3 Mb
--- model.gms(3996) 5 Mb
--- Putfile results /local/scratch/a/sgusev/repos/k_means/data/gams_scip_gdp.hull_exact_conic_no_cholesky/no_mode/2026-02-15_22-37-47/original/results.dat
--- Putfile statresults /local/scratch/a/sgusev/repos/k_means/data/gams_scip_gdp.hull_exact_conic_no_cholesky/no_mode/2026-02-15_22-37-47/original/resultsstat.dat
*** Status: Normal completion
--- Job model.gms Stop 02/15/26 22:39:21 elapsed 0:01:33.406
Original problem solved. Time taken: 94.04432606697083 seconds
Original objective value: 2.135769105461388
